p cnf 7 13
-4 7 0
4 -7 0
6 -3 4 0
-6 3 0
-6 -4 0
7 -3 2 0
-7 3 0
-7 -2 0
-2 5 6 0
2 -5 0
2 -6 0
5 -1 0
-5 1 0
c p weight 1 0.4 0
c p weight -1 0.6 0
c p weight 2 (1.0,1.0) 0
c p weight -2 (0.0,1.0) 0
c p weight 3 0.7 0
c p weight -3 0.30000000000000004 0
c p weight 4 (1.0,1.0) 0
c p weight -4 (1.0,1.0) 0
c p weight 5 (1.0,1.0) 0
c p weight -5 (1.0,1.0) 0
c p weight 6 (1.0,1.0) 0
c p weight -6 (1.0,1.0) 0
c p weight 7 (1.0,1.0) 0
c p weight -7 (1.0,1.0) 0
c p semirings aspmc.semirings.probabilistic aspmc.semirings.two_nat 0
c p transform lambda w : int(w[0] == w[1]) 0
c p quantify 1 3 0
c p quantify  0
c p auxilliary 5 6 7 0
